proyfinal/src/viki/013/andrea/andrea-localstore/experimentInOfficeAgust.take6/worker_1/0b03cc25-0a4b-43ae-af85-fa3017524591.als.cnf.out
Reading from standard input... Use '--help' for help.
============================[ Problem Statistics ]=============================
|                                                                             |
|  Number of variables:         87638                                         |
|  Number of clauses:          161767                                         |
|  Parse time:                   0.04 s                                       |
|                                                                             |
============================[ Search Statistics ]==============================
| Conflicts |          ORIGINAL         |          LEARNT          | Progress |
|           |    Vars  Clauses Literals |    Limit  Clauses Lit/Cl |          |
===============================================================================
|       100 |   61804   103236   257825 |    37853      100     86 | 29.478 % |
|       250 |   61804   103236   257825 |    41638      250     84 | 29.478 % |
|       475 |   61804   103236   257825 |    45802      475     91 | 29.478 % |
|       812 |   61804   103236   257825 |    50382      812    121 | 29.478 % |
|      1318 |   61804   103236   257825 |    55420     1318    123 | 29.478 % |
|      2077 |   43869    50956   130003 |    60962     2045    114 | 49.943 % |
===============================================================================
restarts              : 15
conflicts             : 3119           (8781 /sec)
decisions             : 10200          (0.00 % random) (28716 /sec)
propagations          : 4067750        (11451805 /sec)
conflict literals     : 259385         (31.61 % deleted)
Memory used           : 24.45 MB
CPU time              : 0.355206 s

UNSATISFIABLE
